c ---- [ banner ] ------------------------------------------------------------
c
c Kissat SAT Solver
c 
c Copyright (c) 2021-2024 Armin Biere University of Freiburg
c Copyright (c) 2019-2021 Armin Biere Johannes Kepler University Linz
c 
c Version 4.0.1 43f02cf3e992cb44653b35e5cb26f93281552ae0
c gcc (Ubuntu 13.2.0-23ubuntu4) 13.2.0 -W -Wall -O3 -DNDEBUG
c Thu Sep 12 12:27:46 CEST 2024 Linux abryzen9 6.8.0-41-generic x86_64
c
c ---- [ parsing ] -----------------------------------------------------------
c
c opened and reading DIMACS file:
c
c   /data/artifact/AMulet2.0_artifact/exp4/cnf_mfs_64/64_64_U_SP_DT_CL_GenMul_mfs.cnf
c
c parsed 'p cnf 34704 135561' header
c closing input after reading 2637566 bytes (3 MB)
c finished parsing after 0.02 seconds
c
c ---- [ options ] -----------------------------------------------------------
c
c --stable=0                       (different from default '1')
c
c ---- [ solving ] -----------------------------------------------------------
c
c  seconds switched rate     size/glue tier1  binary           remaining
c         MB reductions conflicts size  tier2     irredundant
c          level restarts redundant glue  trail           variables
c
c *  0.02 10 0 0 0  0 0   0   0 0.0 0 0 0 0 0% 27578 107981 34701 100%
c (  0.04 12 0 0 0  0 0   0   0 0.0 0 0 0 0 0% 27578 107981 34701 100%
c .  0.05 12 0 0 0  0 0   0   0 0.0 0 0 0 0 0% 27574 107981 34701 100%
c c  0.11 21 0 0 0  0 0   0   0 0.0 0 0 0 0 0% 34362 94405 31307 90%
c d  0.12 21 0 0 0  0 0   0   0 0.0 0 0 0 0 0% 27574 94405 31307 90%
c =  0.16 21 0 0 0  0 0   0   0 0.0 0 0 0 0 0% 28086 94405 31051 89%
c d  0.16 21 0 0 0  0 0   0   0 0.0 0 0 0 0 0% 27574 94405 31051 89%
c f  0.23 19 0 0 0  0 0   0   0 0.0 0 0 0 0 0% 30432 89832 32765 94%
c e  0.33 28 0 0 0  0 0   0   0 0.0 0 0 0 0 0% 8591 103776 21682 62%
c )  0.33 28 0 0 0  0 0   0   0 0.0 0 0 0 0 0% 8591 103776 21682 62%
c {  0.35 28 0 0 0  0 0   0   0 0.0 0 0 2 6 0% 8591 103776 21682 62%
c -  0.48 28 286 0 1 129 39 1001 762 3.6 20 6 3 12 27% 8609 103776 21682 62%
c -  0.71 30 252 0 2 310 46 2001 1462 4.5 30 7 4 13 30% 8632 103776 21682 62%
c c  0.80 23 400 0 2 343 45 2502 1916 4.5 28 6 3 14 30% 8641 103744 21674 62%
c d  0.80 23 400 0 2 343 45 2502 1914 4.5 28 6 3 14 30% 8625 103744 21674 62%
c u  0.81 23 400 0 2 343 45 2502 1471 4.5 28 6 3 14 30% 8630 103744 21674 62%
c v  0.83 23 400 0 2 343 45 2502 1236 4.5 28 6 3 14 30% 8630 103744 21674 62%
c w  0.84 23 400 0 2 343 45 2502 1236 4.5 28 6 3 14 30% 8630 103744 21674 62%
c x  0.85 23 400 0 2 343 45 2502 1236 4.5 28 6 3 14 30% 8630 103736 21674 62%
c =  0.90 23 400 0 2 343 45 2502 1236 4.5 28 6 3 14 30% 9038 103736 21470 62%
c
c  seconds   switched   rate       size/glue tier1     binary          remaining
c         MB  reductions conflicts       size  tier2      irredundant
c           level restarts    redundant    glue    trail          variables
c
c d  0.91 23 400 0 2 343 45 2502 1230 4.5 28 6 3 14 30% 8625 103736 21470 62%
c f  0.93 23 400 0 2 343 45 2502 1230 4.5 28 6 3 14 30% 9363 102340 22125 64%
c u  0.95 23 400 0 2 343 45 2502 1170 4.5 28 6 3 14 30% 9364 102340 22125 64%
c v  0.96 23 400 0 2 343 45 2502 1127 4.5 28 6 3 14 30% 9364 102340 22125 64%
c w  0.98 25 400 0 2 343 45 2502 1126 4.5 28 6 3 14 30% 9364 102340 22125 64%
c =  1.03 25 400 0 2 343 45 2502 1126 4.5 28 6 3 14 30% 9710 102340 21952 63%
c d  1.03 25 400 0 2 343 45 2502 1126 4.5 28 6 3 14 30% 9292 102340 21952 63%
c f  1.06 25 400 0 2 343 45 2502 1126 4.5 28 6 3 14 30% 9692 101740 22152 64%
c -  1.27 25 376 0 3 456 44 3416 1677 4.5 31 7 3 14 31% 9716 101740 22152 64%
c -  1.61 25 366 0 4 655 42 5148 2772 4.5 32 7 3 13 33% 9769 101740 22152 64%
c -  1.95 25 387 0 5 844 41 7149 3888 4.4 33 8 2 11 31% 9821 101740 22152 64%
c c  2.06 25 389 0 5 871 40 7706 4340 4.4 33 7 2 11 31% 9841 101635 22121 64%
c d  2.06 25 389 0 5 871 40 7706 4332 4.4 33 7 2 11 31% 9779 101635 22121 64%
c u  2.08 25 389 0 5 871 40 7706 3553 4.4 33 7 2 11 31% 9793 101635 22121 64%
c v  2.11 25 389 0 5 871 40 7706 3083 4.4 33 7 2 11 31% 9793 101635 22121 64%
c w  2.14 25 389 0 5 871 40 7706 3071 4.4 33 7 2 11 31% 9793 101635 22121 64%
c x  2.16 25 389 0 5 871 40 7706 3071 4.4 33 7 2 11 31% 9793 101067 22121 64%
c =  2.26 25 389 0 5 871 40 7706 3071 4.4 33 7 2 11 31% 10847 101067 21594 62%
c d  2.27 25 389 0 5 871 40 7706 3046 4.4 33 7 2 11 31% 9670 101067 21594 62%
c t  2.28 25 389 0 5 871 40 7706 3046 4.4 33 7 2 11 31% 9662 101067 21594 62%
c
c  seconds   switched   rate       size/glue tier1     binary          remaining
c         MB  reductions conflicts       size  tier2       irredundant
c           level restarts    redundant    glue    trail          variables
c
c f  2.31 25 389 0 5 871 40 7706 3046 4.4 33 7 2 11 31% 11605 98152 22566 65%
c u  2.37 25 389 0 5 871 40 7706 2859 4.4 33 7 2 11 31% 11606 98152 22566 65%
c v  2.39 25 389 0 5 871 40 7706 2753 4.4 33 7 2 11 31% 11607 98152 22566 65%
c w  2.42 25 389 0 5 871 40 7706 2749 4.4 33 7 2 11 31% 11607 98152 22566 65%
c x  2.45 25 389 0 5 871 40 7706 2749 4.4 33 7 2 11 31% 11607 92092 22566 65%
c =  2.55 25 389 0 5 871 40 7706 2749 4.4 33 7 2 11 31% 12235 92090 22252 64%
c d  2.56 25 389 0 5 871 40 7706 2741 4.4 33 7 2 11 31% 11504 92090 22251 64%
c t  2.57 25 389 0 5 871 40 7706 2741 4.4 33 7 2 11 31% 11463 92090 22251 64%
c f  2.61 25 389 0 5 871 40 7706 2741 4.4 33 7 2 11 31% 11529 91990 22285 64%
c -  2.88 25 364 0 6 1008 38 9385 3571 4.3 32 7 2 11 31% 11561 91990 22285 64%
c o  2.94 25 368 0 6 1030 37 10132 4120 4.3 31 7 2 11 30% 11591 91990 22285 64%
c -  3.28 25 349 0 7 1221 36 11840 4810 4.1 33 8 2 10 29% 11653 91990 22285 64%
c s  3.36 25 348 0 7 1242 35 12506 5297 4.1 32 8 2 10 29% 11692 90956 22285 64%
c e  3.44 25 348 0 7 1242 35 12506 5297 4.1 32 8 2 10 29% 9983 91981 20794 60%
c s  3.45 25 348 0 7 1242 35 12506 5297 4.1 32 8 2 10 29% 9983 90710 20794 60%
c e  3.46 25 348 0 7 1242 35 12506 5297 4.1 32 8 2 10 29% 9974 90718 20788 60%
c ^  3.46 25 348 0 7 1242 35 12506 5297 4.1 32 8 2 10 29% 9974 90718 20788 60%
c -  3.87 26 340 0 8 1436 35 14485 5498 4.3 34 8 2 10 29% 10007 90718 20788 60%
c d  4.02 26 350 0 8 1494 34 15782 6497 4.3 33 8 2 10 29% 9839 90718 20650 60%
c u  4.04 26 350 0 8 1494 34 15782 5345 4.3 33 8 2 10 29% 9854 90718 20650 60%
c
c  seconds   switched    rate        size/glue tier1     binary         remaining
c         MB  reductions   conflicts       size  tier2      irredundant
c           level  restarts     redundant    glue    trail         variables
c
c v  4.07 26 350 0 8 1494 34 15782 4576 4.3 33 8 2 10 29% 9855 90718 20650 60%
c w  4.12 26 350 0 8 1494 34 15782 4567 4.3 33 8 2 10 29% 9855 90718 20650 60%
c x  4.14 26 350 0 8 1494 34 15782 4567 4.3 33 8 2 10 29% 9855 89884 20650 60%
c =  4.29 26 350 0 8 1494 34 15782 4567 4.3 33 8 2 10 29% 11887 89884 19634 57%
c d  4.29 26 350 0 8 1494 34 15782 4415 4.3 33 8 2 10 29% 9419 89884 19634 57%
c t  4.31 26 350 0 8 1494 34 15782 4415 4.3 33 8 2 10 29% 9400 89884 19634 57%
c f  4.34 26 350 0 8 1494 34 15782 4415 4.3 33 8 2 10 29% 9409 89863 19639 57%
c c  4.39 28 350 0 8 1494 34 15782 4415 4.3 33 8 2 10 29% 9411 89859 19638 57%
c d  4.39 28 350 0 8 1494 34 15782 4415 4.3 33 8 2 10 29% 9409 89859 19638 57%
c u  4.41 28 350 0 8 1494 34 15782 4082 4.3 33 8 2 10 29% 9411 89859 19638 57%
c v  4.43 28 350 0 8 1494 34 15782 3958 4.3 33 8 2 10 29% 9412 89859 19638 57%
c w  4.49 28 350 0 8 1494 34 15782 3945 4.3 33 8 2 10 29% 9412 89859 19638 57%
c x  4.52 28 350 0 8 1494 34 15782 3945 4.3 33 8 2 10 29% 9412 89097 19638 57%
c =  4.66 28 350 0 8 1494 34 15782 3945 4.3 33 8 2 10 29% 11054 89097 18817 54%
c d  4.67 28 350 0 8 1494 34 15782 3889 4.3 33 8 2 10 29% 9143 89097 18817 54%
c -  4.89 28 349 0 9 1567 33 17313 4538 4.1 33 8 2 10 29% 9180 89097 18817 54%
c o  5.22 28 333 0 9 1712 31 20133 6940 4.1 32 8 2 10 28% 9237 89097 18817 54%
c -  5.27 28 331 0 10 1746 31 20313 6196 4.1 32 8 2 9 28% 9237 89097 18817 54%
c -  5.80 28 323 0 11 2031 31 23476 7894 4.1 34 8 2 9 28% 9268 89097 18817 54%
c s  6.03 28 318 0 11 2133 31 25006 9238 4.1 34 8 2 9 28% 9296 87504 18817 54%
c
c  seconds   switched     rate        size/glue tier1    binary         remaining
c         MB   reductions   conflicts       size  tier2     irredundant
c           level   restarts     redundant    glue   trail         variables
c
c e  6.12 28 318 0 11 2133 31 25006 9238 4.1 34 8 2 9 28% 8297 90521 16228 47%
c s  6.13 28 318 0 11 2133 31 25006 9238 4.1 34 8 2 9 28% 8311 86536 16228 47%
c e  6.17 28 318 0 11 2133 31 25006 9238 4.1 34 8 2 9 28% 8292 86569 16212 47%
c ^  6.17 28 318 0 11 2133 31 25006 9238 4.1 34 8 2 9 28% 8292 86569 16212 47%
c -  6.46 27 304 0 12 2209 29 26793 7971 4.0 33 8 2 9 29% 8298 86568 16212 47%
c d  6.49 27 304 0 12 2220 29 26908 8039 4.0 33 8 2 9 29% 8205 86568 16149 47%
c u  6.51 27 304 0 12 2220 29 26908 6677 4.0 33 8 2 9 29% 8222 86568 16149 47%
c v  6.54 27 304 0 12 2220 29 26908 5659 4.0 33 8 2 9 29% 8224 86568 16149 47%
c w  6.55 27 304 0 12 2220 29 26908 5654 4.0 33 8 2 9 29% 8224 86568 16149 47%
c x  6.62 27 304 0 12 2220 29 26908 5654 4.0 33 8 2 9 29% 8225 83592 16149 47%
c =  6.80 27 304 0 12 2220 29 26908 5654 4.0 33 8 2 9 29% 10727 83590 14898 43%
c d  6.80 27 304 0 12 2220 29 26908 5354 4.0 33 8 2 9 29% 8099 83590 14898 43%
c t  6.81 27 304 0 12 2220 29 26908 5354 4.0 33 8 2 9 29% 8077 83590 14898 43%
c f  6.86 27 304 0 12 2220 29 26908 5354 4.0 33 8 2 9 29% 8100 83484 14919 43%
c u  6.89 27 304 0 12 2220 29 26908 4851 4.0 33 8 2 9 29% 8100 83484 14919 43%
c v  6.91 27 304 0 12 2220 29 26908 4715 4.0 33 8 2 9 29% 8100 83484 14919 43%
c w  6.91 27 304 0 12 2220 29 26908 4712 4.0 33 8 2 9 29% 8100 83484 14919 43%
c x  6.99 27 304 0 12 2220 29 26908 4711 4.0 33 8 2 9 29% 8100 74229 14919 43%
c =  7.14 27 304 0 12 2220 29 26908 4711 4.0 33 8 2 9 29% 8428 74229 14755 43%
c d  7.15 27 304 0 12 2220 29 26908 4702 4.0 33 8 2 9 29% 8095 74229 14755 43%
c
c  seconds   switched     rate        size/glue tier1    binary         remaining
c         MB   reductions   conflicts       size  tier2     irredundant
c           level   restarts     redundant    glue   trail         variables
c
c -  7.50 27 281 0 13 2391 27 30257 6640 3.8 31 8 2 9 29% 8132 74229 14755 43%
c -  7.77 27 264 0 14 2515 26 33862 8593 3.6 29 8 2 9 28% 8175 74228 14755 43%
c -  8.15 27 257 0 15 2714 25 37603 10368 3.5 28 8 2 9 28% 8194 74228 14755 43%
c o  8.42 27 254 0 15 2850 24 40370 12883 3.5 27 8 2 9 28% 8209 74227 14755 43%
c c  8.62 27 252 0 15 2966 24 41252 13697 3.5 27 8 2 9 29% 8271 73900 14690 42%
c d  8.63 27 252 0 15 2966 24 41252 13405 3.5 27 8 2 9 29% 8126 73900 14680 42%
c u  8.66 27 252 0 15 2966 24 41252 11430 3.5 27 8 2 9 29% 8140 73900 14680 42%
c v  8.70 27 252 0 15 2966 24 41252 10728 3.5 27 8 2 9 29% 8140 73900 14680 42%
c w  8.73 27 252 0 15 2966 24 41252 10728 3.5 27 8 2 9 29% 8140 73900 14680 42%
c x  8.77 27 252 0 15 2966 24 41252 10727 3.5 27 8 2 9 29% 8140 73245 14680 42%
c =  8.93 27 252 0 15 2966 24 41252 10727 3.5 27 8 2 9 29% 9434 73204 14028 40%
c d  8.93 27 252 0 15 2966 24 41252 10357 3.5 27 8 2 9 29% 8057 73204 14028 40%
c t  8.94 27 252 0 15 2966 24 41252 10357 3.5 27 8 2 9 29% 8051 73204 14028 40%
c u  9.00 27 252 0 15 2966 24 41252 9720 3.5 27 8 2 9 29% 8051 73204 14028 40%
c v  9.04 27 252 0 15 2966 24 41252 8828 3.5 27 8 2 9 29% 8051 73204 14028 40%
c w  9.08 27 252 0 15 2966 24 41252 8827 3.5 27 8 2 9 29% 8051 73204 14028 40%
c x  9.12 27 252 0 15 2966 24 41252 8827 3.5 27 8 2 9 29% 8051 69386 14028 40%
c =  9.26 27 252 0 15 2966 24 41252 8827 3.5 27 8 2 9 29% 8091 69386 14008 40%
c d  9.26 27 252 0 15 2966 24 41252 8827 3.5 27 8 2 9 29% 8051 69386 14008 40%
c -  9.32 27 252 0 16 2973 24 41475 7830 3.5 27 8 2 8 29% 8048 69386 14008 40%
c
c  seconds   switched     rate        size/glue tier1    binary         remaining
c         MB   reductions   conflicts       size  tier2     irredundant
c           level   restarts     redundant    glue   trail         variables
c
c -  9.56 27 242 0 17 3134 23 45475 9829 3.4 26 8 2 8 28% 8085 69385 14008 40%
c -  9.89 27 236 0 18 3307 22 49598 11919 3.3 26 8 2 8 28% 8110 69384 14008 40%
c s 10.19 27 233 0 18 3504 22 52114 14181 3.3 25 8 2 8 28% 8117 68310 14008 40%
c e 10.26 27 233 0 18 3504 22 52114 14181 3.3 25 8 2 8 28% 7184 70013 13083 38%
c 2 10.26 27 233 0 18 3504 22 52114 14181 3.3 25 8 2 8 28% 7183 70013 13083 38%
c s 10.26 27 233 0 18 3504 22 52114 14181 3.3 25 8 2 8 28% 7185 69611 13083 38%
c e 10.27 27 233 0 18 3504 22 52114 14181 3.3 25 8 2 8 28% 7177 69637 13071 38%
c ^ 10.27 27 233 0 18 3504 22 52114 14181 3.3 25 8 2 8 28% 7177 69637 13071 38%
c - 10.43 27 228 0 19 3589 21 53840 12366 3.3 25 8 2 8 28% 7185 69637 13071 38%
c - 10.84 27 223 0 20 3850 21 58200 14151 3.2 24 8 2 7 28% 7216 69637 13071 38%
c c 10.89 27 224 0 20 3859 21 58917 14738 3.2 24 8 2 7 28% 7274 69342 13024 38%
c d 10.90 27 224 0 20 3859 21 58917 14556 3.2 24 8 2 7 28% 7180 69342 13024 38%
c u 10.94 27 224 0 20 3859 21 58917 12344 3.2 24 8 2 7 28% 7196 69342 13024 38%
c v 10.97 27 224 0 20 3859 21 58917 11364 3.2 24 8 2 7 28% 7200 69342 13024 38%
c w 10.98 27 224 0 20 3859 21 58917 11287 3.2 24 8 2 7 28% 7201 69342 13024 38%
c x 11.02 27 224 0 20 3859 21 58917 11287 3.2 24 8 2 7 28% 7201 69123 13024 38%
c d 11.19 27 224 0 20 3859 21 58917 11276 3.2 24 8 2 7 28% 7191 69123 13019 38%
c t 11.20 27 224 0 20 3859 21 58917 11276 3.2 24 8 2 7 28% 7181 69123 13019 38%
c f 11.22 27 224 0 20 3859 21 58917 11276 3.2 24 8 2 7 28% 7192 69076 13026 38%
c c 11.25 27 224 0 20 3859 21 58917 11257 3.2 24 8 2 7 28% 7200 69044 13022 38%
c
c  seconds   switched     rate         size/glue tier1    binary         remaining
c         MB   reductions   conflicts        size  tier2     irredundant
c           level   restarts      redundant    glue   trail         variables
c
c d 11.26 27 224 0 20 3859 21 58917 11257 3.2 24 8 2 7 28% 7192 69044 13022 38%
c u 11.29 27 224 0 20 3859 21 58917 10848 3.2 24 8 2 7 28% 7196 69044 13022 38%
c v 11.32 27 224 0 20 3859 21 58917 10072 3.2 24 8 2 7 28% 7199 69044 13022 38%
c w 11.33 27 224 0 20 3859 21 58917 10041 3.2 24 8 2 7 28% 7199 69044 13022 38%
c x 11.38 27 224 0 20 3859 21 58917 10039 3.2 24 8 2 7 28% 7199 68861 13022 38%
c d 11.38 27 224 0 20 3859 21 58917 10033 3.2 24 8 2 7 28% 7193 68861 13019 38%
c - 11.62 27 217 0 21 4001 20 62672 11716 3.1 23 7 2 7 27% 7224 68861 13019 38%
c - 12.12 27 208 0 22 4318 19 67255 13970 3.0 23 7 2 7 27% 7261 68861 13019 38%
c o 12.45 27 204 0 22 4537 19 70379 16753 3.0 22 7 2 7 27% 7276 68861 13019 38%
c - 12.67 27 204 0 23 4694 20 71945 16003 3.0 22 7 2 7 27% 7289 68861 13019 38%
c - 13.14 27 198 0 24 5068 19 76742 17797 3.0 22 7 2 7 27% 7335 68861 13019 38%
c d 13.32 27 199 0 24 5195 19 80021 20293 2.9 22 7 2 7 26% 7246 68861 12952 37%
c u 13.38 27 199 0 24 5195 19 80021 17048 2.9 22 7 2 7 26% 7292 68861 12952 37%
c v 13.44 27 199 0 24 5195 19 80021 14869 2.9 22 7 2 7 26% 7296 68861 12952 37%
c w 13.50 27 199 0 24 5195 19 80021 14790 2.9 22 7 2 7 26% 7296 68861 12952 37%
c = 13.68 27 199 0 24 5195 19 80021 14790 2.9 22 7 2 7 26% 7556 68861 12822 37%
c d 13.68 27 199 0 24 5195 19 80021 14547 2.9 22 7 2 7 26% 7230 68861 12808 37%
c t 13.69 27 199 0 24 5195 19 80021 14547 2.9 22 7 2 7 26% 7223 68861 12808 37%
c b 13.69 27 199 0 24 5195 19 80021 14547 2.9 22 7 2 7 26% 7223 68861 12807 37%
c c 13.73 27 199 0 24 5195 19 80021 14547 2.9 22 7 2 7 26% 7245 68745 12793 37%
c
c  seconds   switched     rate         size/glue tier1    binary         remaining
c         MB   reductions   conflicts        size  tier2     irredundant
c           level   restarts      redundant    glue   trail         variables
c
c d 13.74 27 199 0 24 5195 19 80021 14489 2.9 22 7 2 7 26% 7221 68741 12793 37%
c d 13.74 27 199 0 24 5195 19 80021 14489 2.9 22 7 2 7 26% 7217 68741 12791 37%
c u 13.78 27 199 0 24 5195 19 80021 13754 2.9 22 7 2 7 26% 7224 68741 12791 37%
c v 13.81 27 199 0 24 5195 19 80021 13261 2.9 22 7 2 7 26% 7225 68741 12791 37%
c w 13.86 27 199 0 24 5195 19 80021 13184 2.9 22 7 2 7 26% 7225 68741 12791 37%
c x 13.90 27 199 0 24 5195 19 80021 13184 2.9 22 7 2 7 26% 7225 68427 12791 37%
c = 14.13 27 199 0 24 5195 19 80021 13184 2.9 22 7 2 7 26% 7507 68419 12649 36%
c d 14.14 27 199 0 24 5195 19 80021 12942 2.9 22 7 2 7 26% 7190 68419 12648 36%
c - 14.36 27 197 0 25 5297 19 81642 12942 2.9 21 7 2 7 27% 7191 68419 12648 36%
c - 14.70 27 194 0 26 5516 18 86642 15244 2.9 21 7 2 7 27% 7210 68419 12648 36%
c - 15.20 27 194 0 27 5918 18 91741 17604 2.8 21 7 2 6 27% 7221 68419 12648 36%
c s 15.75 27 190 0 27 6332 18 95867 21316 2.8 21 7 2 6 27% 7238 67154 12648 36%
c e 15.82 27 190 0 27 6332 18 95867 21316 2.8 21 7 2 6 27% 4976 73135 11414 33%
c s 15.84 27 190 0 27 6332 18 95867 21316 2.8 21 7 2 6 27% 4977 72973 11414 33%
c e 15.84 27 190 0 27 6332 18 95867 21316 2.8 21 7 2 6 27% 4972 73026 11394 33%
c ^ 15.84 27 190 0 27 6332 18 95867 21316 2.8 21 7 2 6 27% 4972 73026 11394 33%
c - 15.98 27 189 0 28 6418 18 96938 16277 2.8 21 7 2 6 27% 4978 73025 11394 33%
c - 16.84 27 184 0 29 7131 19 102238 18610 2.8 21 7 2 6 27% 5004 73023 11394 33%
c c 17.17 27 182 0 29 7379 19 104687 20847 2.8 21 7 2 6 27% 5059 72723 11350 33%
c d 17.18 27 182 0 29 7379 19 104687 20672 2.8 21 7 2 6 27% 4971 72723 11350 33%
c
c  seconds   switched     rate          size/glue tier1    binary         remaining
c         MB   reductions   conflicts         size  tier2     irredundant
c           level   restarts       redundant    glue   trail         variables
c
c u 17.24 27 182 0 29 7379 19 104687 17264 2.8 21 7 2 6 27% 4989 72723 11350 33%
c v 17.30 27 182 0 29 7379 19 104687 15051 2.8 21 7 2 6 27% 4991 72723 11350 33%
c w 17.36 27 182 0 29 7379 19 104687 15041 2.8 21 7 2 6 27% 4991 72723 11350 33%
c x 17.43 27 182 0 29 7379 19 104687 15039 2.8 21 7 2 6 27% 4991 71449 11350 33%
c = 17.76 27 182 0 29 7379 19 104687 15039 2.8 21 7 2 6 27% 5309 71449 11191 32%
c d 17.77 27 182 0 29 7379 19 104687 14724 2.8 21 7 2 6 27% 4944 71449 11191 32%
c t 17.78 27 182 0 29 7379 19 104687 14724 2.8 21 7 2 6 27% 4937 71449 11191 32%
c u 17.90 27 182 0 29 7379 19 104687 13927 2.8 21 7 2 6 27% 4938 71449 11191 32%
c v 17.93 27 182 0 29 7379 19 104687 13536 2.8 21 7 2 6 27% 4938 71449 11191 32%
c w 18.03 27 182 0 29 7379 19 104687 13429 2.8 21 7 2 6 27% 4938 71449 11191 32%
c x 18.08 27 182 0 29 7379 19 104687 13429 2.8 21 7 2 6 27% 4938 71402 11191 32%
c - 18.85 27 180 0 30 7659 19 107624 14259 2.8 21 7 2 6 27% 4943 71402 11191 32%
c o 19.33 27 177 0 30 8046 19 110393 16869 2.7 21 8 2 6 28% 4949 71402 11191 32%
c - 19.66 27 175 0 31 8289 19 113105 16969 2.7 20 8 2 6 28% 4971 71400 11191 32%
c - 20.62 27 172 0 32 9074 20 118673 17789 2.7 21 8 1 6 28% 5001 71400 11191 32%
c - 21.43 27 170 0 33 9689 20 124329 18854 2.7 21 8 1 6 28% 5046 71400 11191 32%
c i 21.70 27 169 0 33 9909 20 126322 20475 2.7 21 8 1 6 28% 5080 71399 11190 32%
c - 22.29 27 168 0 34 10305 20 130073 19893 2.8 22 8 1 6 28% 5095 71399 11190 32%
c d 22.71 27 166 0 34 10572 20 132982 22274 2.8 22 8 1 6 28% 4984 71381 11125 32%
c d 22.72 27 166 0 34 10572 20 132982 22265 2.8 22 8 1 6 28% 4980 71381 11123 32%
c
c  seconds   switched      rate          size/glue tier1    binary         remaining
c         MB   reductions    conflicts         size  tier2     irredundant
c           level   restarts        redundant    glue   trail         variables
c
c u 22.76 27 166 0 34 10572 20 132982 19884 2.8 22 8 1 6 28% 5000 71381 11123 32%
c v 22.84 27 166 0 34 10572 20 132982 16094 2.8 22 8 1 6 28% 5009 71381 11123 32%
c w 23.01 27 166 0 34 10572 20 132982 15904 2.8 22 8 1 6 28% 5009 71381 11123 32%
c d 23.01 27 166 0 34 10572 20 132982 15888 2.8 22 8 1 6 28% 4981 71381 11109 32%
c t 23.02 27 166 0 34 10572 20 132982 15888 2.8 22 8 1 6 28% 4977 71381 11109 32%
c c 23.06 27 166 0 34 10572 20 132982 15888 2.8 22 8 1 6 28% 5022 71125 11082 32%
c d 23.06 27 166 0 34 10572 20 132982 15827 2.8 22 8 1 6 28% 4968 71125 11082 32%
c u 23.10 27 166 0 34 10572 20 132982 15251 2.8 22 8 1 6 28% 4978 71125 11082 32%
c v 23.14 27 166 0 34 10572 20 132982 14426 2.8 22 8 1 6 28% 4981 71125 11082 32%
c w 23.29 27 166 0 34 10572 20 132982 14306 2.8 22 8 1 6 28% 4981 71125 11082 32%
c x 23.40 27 166 0 34 10572 20 132982 14274 2.8 22 8 1 6 28% 4986 69306 11081 32%
c = 23.88 27 166 0 34 10572 20 132982 14274 2.8 22 8 1 6 28% 4988 69306 11080 32%
c d 23.88 27 166 0 34 10572 20 132982 14254 2.8 22 8 1 6 28% 4975 69306 11075 32%
c t 23.89 27 166 0 34 10572 20 132982 14254 2.8 22 8 1 6 28% 4970 69306 11075 32%
c i 23.90 27 166 0 34 10572 20 132982 14254 2.8 22 8 1 6 28% 4970 69306 11075 32%
c - 24.21 27 165 0 35 10741 20 135904 14327 2.7 21 8 1 6 28% 4989 69305 11075 32%
c i 24.41 27 163 0 35 10904 19 138814 16653 2.7 21 8 1 6 28% 5024 69305 11074 32%
c i 24.51 27 162 0 35 10979 19 139553 17301 2.7 21 8 1 6 28% 5034 69305 11073 32%
c i 24.51 27 162 0 35 10979 19 139994 17588 2.7 21 8 1 6 28% 5048 69305 11072 32%
c - 24.65 27 162 0 36 11072 19 141820 16321 2.7 21 8 1 6 28% 5051 69305 11072 32%
c
c  seconds   switched      rate          size/glue tier1    binary         remaining
c         MB   reductions    conflicts         size  tier2     irredundant
c           level   restarts        redundant    glue   trail         variables
c
c i 24.66 27 162 0 36 11087 19 141895 16382 2.7 21 8 1 6 28% 5055 69305 11071 32%
c i 25.24 27 160 0 36 11501 19 146586 20717 2.7 21 8 1 6 28% 5077 69302 11070 32%
c i 25.43 27 159 0 36 11639 19 147586 21652 2.7 21 8 1 6 28% 5082 69302 11058 32%
c - 25.45 27 159 0 37 11646 19 147820 18108 2.7 21 8 1 6 28% 5086 69302 11058 32%
c i 25.61 27 159 0 37 11754 19 149265 19400 2.7 21 8 1 6 28% 5098 69302 11057 32%
c i 25.75 27 157 0 37 11842 19 150659 20618 2.7 21 8 1 6 28% 5117 69302 11056 32%
c i 25.80 27 157 0 37 11871 19 151132 21069 2.7 21 8 1 6 28% 5117 69302 11054 32%
c i 25.80 27 157 0 37 11871 19 151133 21069 2.7 21 8 1 6 28% 5117 69302 11053 32%
c i 25.99 27 156 0 37 11992 19 152933 22655 2.6 21 8 1 6 28% 5135 69302 11052 32%
c i 26.11 27 155 0 37 12079 19 153676 23305 2.6 21 8 1 6 28% 5146 69302 11051 32%
c - 26.14 27 155 0 38 12108 19 153902 19442 2.6 21 8 1 6 28% 5131 69301 11051 32%
c i 26.21 27 154 0 38 12164 19 154741 20174 2.6 21 8 1 6 28% 5136 69301 11050 32%
c i 26.21 27 154 0 38 12166 19 154761 20177 2.6 21 8 1 6 28% 5139 69301 11049 32%
c i 26.30 27 153 0 38 12231 19 155554 20888 2.6 21 8 1 6 28% 5147 69301 11048 32%
c i 26.33 27 153 0 38 12245 19 155767 21082 2.6 21 8 1 6 28% 5152 69301 11047 32%
c i 26.41 27 153 0 38 12326 19 156499 21736 2.6 21 8 1 6 28% 5157 69301 11046 32%
c i 26.43 27 153 0 38 12359 19 156852 22034 2.6 21 8 1 6 28% 5161 69301 11045 32%
c i 26.44 27 152 0 38 12361 18 157084 22216 2.6 21 8 1 6 28% 5164 69301 11043 32%
c i 26.45 27 152 0 38 12364 19 157124 22251 2.6 21 8 1 6 28% 5166 69301 11042 32%
c s 26.51 27 152 0 38 12433 18 158021 23024 2.6 21 8 1 6 27% 5168 69117 11042 32%
c
c  seconds   switched      rate          size/glue tier1    binary        remaining
c         MB   reductions    conflicts         size  tier2     irredundant
c           level   restarts        redundant    glue   trail        variables
c
c e 26.61 27 152 0 38 12433 18 158021 23024 2.6 21 8 1 6 27% 2612 80365 9311 27%
c 2 26.61 27 152 0 38 12433 18 158021 23024 2.6 21 8 1 6 27% 2610 80365 9311 27%
c s 26.63 27 152 0 38 12433 18 158021 23024 2.6 21 8 1 6 27% 2612 79405 9311 27%
c e 26.64 27 152 0 38 12433 18 158021 23024 2.6 21 8 1 6 27% 2604 79519 9267 27%
c ^ 26.64 27 152 0 38 12433 18 158021 23024 2.6 21 8 1 6 27% 2604 79519 9267 27%
c i 26.71 27 150 0 38 12518 18 159319 15612 2.6 21 8 1 6 27% 2616 79519 9266 27%
c i 26.73 27 150 0 38 12529 18 159485 15762 2.6 21 8 1 6 27% 2618 79519 9265 27%
c - 26.76 27 150 0 39 12571 18 160066 13550 2.6 21 8 1 6 27% 2632 79497 9265 27%
c i 26.76 27 150 0 39 12571 18 160088 13566 2.6 21 8 1 6 27% 2632 79497 9264 27%
c o 26.78 27 149 0 39 12607 18 160398 13844 2.6 21 8 1 6 27% 2635 79497 9264 27%
c c 26.95 27 145 0 39 12827 18 165028 17657 2.6 20 8 1 6 26% 2697 79221 9225 27%
c d 26.96 27 145 0 39 12827 18 165028 17422 2.6 20 8 1 6 26% 2623 79219 9225 27%
c d 26.96 27 145 0 39 12827 18 165028 17422 2.6 20 8 1 6 26% 2621 79219 9224 27%
c u 26.99 27 145 0 39 12827 18 165028 15640 2.6 20 8 1 6 26% 2631 79219 9223 27%
c v 27.06 27 145 0 39 12827 18 165028 12617 2.6 20 8 1 6 26% 2641 79219 9223 27%
c w 27.10 27 145 0 39 12827 18 165028 12550 2.6 20 8 1 6 26% 2641 79219 9223 27%
c x 27.16 27 145 0 39 12827 18 165028 12550 2.6 20 8 1 6 26% 2645 79194 9223 27%
c = 27.50 27 145 0 39 12827 18 165028 12550 2.6 20 8 1 6 26% 2674 79158 9207 27%
c d 27.50 27 145 0 39 12827 18 165028 12491 2.6 20 8 1 6 26% 2627 79154 9205 27%
c t 27.51 27 145 0 39 12827 18 165028 12491 2.6 20 8 1 6 26% 2612 79154 9205 27%
c
c  seconds   switched      rate          size/glue tier1    binary        remaining
c         MB   reductions    conflicts         size  tier2     irredundant
c           level   restarts        redundant    glue   trail        variables
c
c f 27.58 27 145 0 39 12827 18 165028 12491 2.6 20 8 1 6 26% 2629 78730 9225 27%
c u 27.63 27 145 0 39 12827 18 165028 12257 2.6 20 8 1 6 26% 2627 78730 9225 27%
c v 27.67 27 145 0 39 12827 18 165028 11734 2.6 20 8 1 6 26% 2628 78730 9225 27%
c w 27.74 27 145 0 39 12827 18 165028 11373 2.6 20 8 1 6 26% 2629 78730 9225 27%
c = 28.08 27 145 0 39 12827 18 165028 11373 2.6 20 8 1 6 26% 2641 78666 9219 27%
c d 28.09 27 145 0 39 12827 18 165028 11371 2.6 20 8 1 6 26% 2626 78666 9219 27%
c i 28.12 27 145 0 39 12827 18 165028 11371 2.6 20 8 1 6 26% 2626 78666 9219 27%
c i 28.15 27 144 0 39 12875 18 165728 11937 2.6 20 8 1 6 26% 2632 78666 9218 27%
c i 28.15 27 144 0 39 12886 17 166019 12144 2.6 20 8 1 6 26% 2644 78666 9217 27%
c i 28.17 27 144 0 39 12914 17 166297 12386 2.6 20 8 1 6 26% 2647 78666 9216 27%
c - 28.17 27 144 0 40 12914 17 166310 9868 2.6 20 8 1 6 26% 2637 78666 9216 27%
c i 28.24 27 141 0 40 13046 17 168243 11587 2.6 20 8 1 6 26% 2645 78666 9215 27%
c i 28.36 27 139 0 40 13355 17 170604 13743 2.5 20 8 1 6 25% 2653 78664 9214 27%
c i 28.37 27 139 0 40 13376 17 170787 13900 2.5 20 8 1 6 25% 2655 78664 9213 27%
c i 28.40 27 138 0 40 13443 17 171556 14557 2.5 20 8 1 6 25% 2663 78664 9212 27%
c i 28.45 27 138 0 40 13519 17 172179 15135 2.5 20 8 1 6 25% 2671 78664 9196 26%
c - 28.48 27 137 0 41 13584 17 172634 11681 2.5 20 8 1 6 25% 2647 78663 9196 26%
c } 28.53 27 136 0 41 13709 17 173501 12483 2.5 20 8 1 6 25% 2650 78663 9176 26%
c 0 28.53 27 136 0 41 13709 17 173501 12483 2.5 20 8 1 6 25% 2650 78663 9176 26%
c
c ---- [ result ] ------------------------------------------------------------
c
s UNSATISFIABLE
c
c ---- [ profiling ] ---------------------------------------------------------
c
c          19.54   68.49 %  search
c          19.54   68.49 %  focused
c           8.64   30.29 %  simplify
c           8.21   28.79 %  probe
c           3.66   12.83 %  sweep
c           3.02   10.57 %  vivify
c           0.62    2.17 %  eliminate
c           0.56    1.98 %  factor
c           0.49    1.72 %  congruence
c           0.36    1.25 %  substitute
c           0.29    1.03 %  preprocess
c           0.16    0.56 %  reduce
c           0.11    0.38 %  subsume
c           0.10    0.34 %  fastel
c           0.09    0.32 %  transitive
c           0.03    0.12 %  backbone
c           0.03    0.11 %  lucky
c           0.02    0.08 %  parse
c =============================================
c          28.53  100.00 %  total
c
c ---- [ statistics ] --------------------------------------------------------
c
c chronological:                         3976                2 %  conflicts
c conflicts:                           173501             6080.96 per second
c congruent:                             3673               11 %  variables
c decisions:                          3019805               17.41 per conflict
c eliminated:                           19151               55 %  variables
c factored:                              3628               10 %  variables
c fast_eliminated:                      11083               58 %  eliminated
c fast_strengthened:                        4                0 %  per strengthened
c fast_subsumed:                           58                0 %  per subsumed
c iterations:                              33                0 %  variables
c propagations:                     136433560          4781796    per second
c reductions:                              41             4232    interval
c reordered:                                6            28917    interval
c restarts:                             13709               13    interval
c strengthened:                          4832                0 %  checks
c substituted:                           9911               29 %  variables
c subsumed:                             11799                0 %  checks
c switched:                                 0                0    interval
c vivified:                             86710               14 %  checks
c
c ---- [ glue usage ] --------------------------------------------------------
c
c focused glue 1   used 245384 clauses 53.68% accumulated 53.68% tier1
c focused glue 2   used 100378 clauses 21.96% accumulated 75.63%
c focused glue 3-4 used  51722 clauses 11.31% accumulated 86.95%
c focused glue 5   used  13054 clauses  2.86% accumulated 89.80%
c focused glue 6   used   9381 clauses  2.05% accumulated 91.85% tier2
c
c ---- [ resources ] ---------------------------------------------------------
c
c maximum-resident-set-size:         31023104 bytes         30 MB
c process-time:                            29s              28.53 seconds
c
c ---- [ shutting down ] -----------------------------------------------------
c
c exit 20
